nK = 695;
nT = 4;
nI = 7;
L = 29;
TT = 147;
np = 1;
nc = 3;
b = [31, 34, 68, 67, 27, 56, 56];
d = [57, 64, 137, 118, 89, 141, 128];
m = [1.3, 1.5, 1.7, 2.2, 1.8, 2.1, 1.8];
pt = [0.2, 0.3, 0.29, 0.28];
st = [8, 13.5, 16.24, 11.76];
arc = {<1, 0, 1, 1, 0, 0, 0, [1, 1, 1, 1]>, <2, 1, 2, 1, 0, 0, 0, [1, 1, 1, 1]>, <3, 2, 3, 1, 0, 0, 0, [1, 1, 1, 1]>, <4, 3, 4, 1, 0, 0, 0, [1, 1, 1, 1]>, <5, 4, 5, 1, 0, 0, 0, [1, 1, 1, 1]>, <6, 5, 6, 1, 0, 0, 0, [1, 1, 1, 1]>, <7, 6, 7, 1, 0, 0, 0, [1, 1, 1, 1]>, <8, 7, 8, 1, 0, 0, 0, [1, 1, 1, 1]>, <9, 8, 9, 1, 0, 0, 0, [1, 1, 1, 1]>, <10, 9, 10, 1, 0, 0, 0, [1, 1, 1, 1]>, <11, 10, 11, 1, 0, 0, 0, [1, 1, 1, 1]>, <12, 11, 12, 1, 0, 0, 0, [1, 1, 1, 1]>, <13, 12, 13, 1, 0, 0, 0, [1, 1, 1, 1]>, <14, 13, 14, 1, 0, 0, 0, [1, 1, 1, 1]>, <15, 14, 15, 1, 0, 0, 0, [1, 1, 1, 1]>, <16, 15, 16, 1, 0, 0, 0, [1, 1, 1, 1]>, <17, 16, 17, 1, 0, 0, 0, [1, 1, 1, 1]>, <18, 17, 18, 1, 0, 0, 0, [1, 1, 1, 1]>, <19, 18, 19, 1, 0, 0, 0, [1, 1, 1, 1]>, <20, 19, 20, 1, 0, 0, 0, [1, 1, 1, 1]>, <21, 20, 21, 1, 0, 0, 0, [1, 1, 1, 1]>, <22, 21, 22, 1, 0, 0, 0, [1, 1, 1, 1]>, <23, 22, 23, 1, 0, 0, 0, [1, 1, 1, 1]>, <24, 23, 24, 1, 0, 0, 0, [1, 1, 1, 1]>, <25, 24, 25, 1, 0, 0, 0, [1, 1, 1, 1]>, <26, 25, 26, 1, 0, 0, 0, [1, 1, 1, 1]>, <27, 26, 27, 1, 0, 0, 0, [1, 1, 1, 1]>, <28, 27, 28, 1, 0, 0, 0, [1, 1, 1, 1]>, <29, 28, 29, 1, 0, 0, 0, [1, 1, 1, 1]>, <30, 0, 14, 14, 1, 0, 1, [1, 1, 1, 0]>, <31, 1, 15, 14, 1, 0, 1, [1, 1, 1, 0]>, <32, 2, 16, 14, 1, 0, 1, [1, 1, 1, 0]>, <33, 3, 17, 14, 1, 0, 1, [1, 1, 1, 0]>, <34, 4, 18, 14, 1, 0, 1, [1, 1, 1, 0]>, <35, 5, 19, 14, 1, 0, 1, [1, 1, 1, 0]>, <36, 6, 20, 14, 1, 0, 1, [1, 1, 1, 0]>, <37, 7, 21, 14, 1, 0, 1, [1, 1, 1, 0]>, <38, 8, 22, 14, 1, 0, 1, [1, 1, 1, 0]>, <39, 9, 23, 14, 1, 0, 1, [1, 1, 1, 0]>, <40, 10, 24, 14, 1, 0, 1, [1, 1, 1, 0]>, <41, 11, 25, 14, 1, 0, 1, [1, 1, 1, 0]>, <42, 12, 26, 14, 1, 0, 1, [1, 1, 1, 0]>, <43, 13, 27, 14, 1, 0, 1, [1, 1, 1, 0]>, <44, 14, 28, 14, 1, 0, 1, [1, 1, 1, 0]>, <45, 15, 29, 14, 1, 0, 1, [1, 1, 1, 0]>, <46, 0, 13, 13, 2, 0, 0, [1, 1, 0, 1]>, <47, 1, 14, 13, 2, 0, 0, [1, 1, 0, 1]>, <48, 2, 15, 13, 2, 0, 0, [1, 1, 0, 1]>, <49, 3, 16, 13, 2, 0, 0, [1, 1, 0, 1]>, <50, 4, 17, 13, 2, 0, 0, [1, 1, 0, 1]>, <51, 5, 18, 13, 2, 0, 0, [1, 1, 0, 1]>, <52, 7, 20, 13, 2, 0, 0, [1, 1, 0, 1]>, <53, 8, 21, 13, 2, 0, 0, [1, 1, 0, 1]>, <54, 9, 22, 13, 2, 0, 0, [1, 1, 0, 1]>, <55, 10, 23, 13, 2, 0, 0, [1, 1, 0, 1]>, <56, 11, 24, 13, 2, 0, 0, [1, 1, 0, 1]>, <57, 12, 25, 13, 2, 0, 0, [1, 1, 0, 1]>, <58, 13, 26, 13, 2, 0, 0, [1, 1, 0, 1]>, <59, 14, 27, 13, 2, 0, 0, [1, 1, 0, 1]>, <60, 15, 28, 13, 2, 0, 0, [1, 1, 0, 1]>, <61, 16, 29, 13, 2, 0, 0, [1, 1, 0, 1]>, <62, 0, 13, 13, 3, 0, 0, [1, 1, 0, 1]>, <63, 1, 14, 13, 3, 0, 0, [1, 1, 0, 1]>, <64, 2, 15, 13, 3, 0, 0, [1, 1, 0, 1]>, <65, 3, 16, 13, 3, 0, 0, [1, 1, 0, 1]>, <66, 4, 17, 13, 3, 0, 0, [1, 1, 0, 1]>, <67, 5, 18, 13, 3, 0, 0, [1, 1, 0, 1]>, <68, 7, 20, 13, 3, 0, 0, [1, 1, 0, 1]>, <69, 8, 21, 13, 3, 0, 0, [1, 1, 0, 1]>, <70, 9, 22, 13, 3, 0, 0, [1, 1, 0, 1]>, <71, 10, 23, 13, 3, 0, 0, [1, 1, 0, 1]>, <72, 11, 24, 13, 3, 0, 0, [1, 1, 0, 1]>, <73, 12, 25, 13, 3, 0, 0, [1, 1, 0, 1]>, <74, 13, 26, 13, 3, 0, 0, [1, 1, 0, 1]>, <75, 14, 27, 13, 3, 0, 0, [1, 1, 0, 1]>, <76, 15, 28, 13, 3, 0, 0, [1, 1, 0, 1]>, <77, 16, 29, 13, 3, 0, 0, [1, 1, 0, 1]>, <78, 0, 14, 14, 4, 0, 1, [1, 0, 1, 1]>, <79, 1, 15, 14, 4, 0, 1, [1, 0, 1, 1]>, <80, 2, 16, 14, 4, 0, 1, [1, 0, 1, 1]>, <81, 3, 17, 14, 4, 0, 1, [1, 0, 1, 1]>, <82, 4, 18, 14, 4, 0, 1, [1, 0, 1, 1]>, <83, 5, 19, 14, 4, 0, 1, [1, 0, 1, 1]>, <84, 6, 20, 14, 4, 0, 1, [1, 0, 1, 1]>, <85, 7, 21, 14, 4, 0, 1, [1, 0, 1, 1]>, <86, 8, 22, 14, 4, 0, 1, [1, 0, 1, 1]>, <87, 9, 23, 14, 4, 0, 1, [1, 0, 1, 1]>, <88, 10, 24, 14, 4, 0, 1, [1, 0, 1, 1]>, <89, 11, 25, 14, 4, 0, 1, [1, 0, 1, 1]>, <90, 12, 26, 14, 4, 0, 1, [1, 0, 1, 1]>, <91, 13, 27, 14, 4, 0, 1, [1, 0, 1, 1]>, <92, 14, 28, 14, 4, 0, 1, [1, 0, 1, 1]>, <93, 15, 29, 14, 4, 0, 1, [1, 0, 1, 1]>, <94, 0, 12, 12, 5, 0, 0, [1, 0, 1, 1]>, <95, 1, 13, 12, 5, 0, 0, [1, 0, 1, 1]>, <96, 2, 14, 12, 5, 0, 0, [1, 0, 1, 1]>, <97, 3, 15, 12, 5, 0, 0, [1, 0, 1, 1]>, <98, 4, 16, 12, 5, 0, 0, [1, 0, 1, 1]>, <99, 5, 17, 12, 5, 0, 0, [1, 0, 1, 1]>, <100, 8, 20, 12, 5, 0, 0, [1, 0, 1, 1]>, <101, 9, 21, 12, 5, 0, 0, [1, 0, 1, 1]>, <102, 10, 22, 12, 5, 0, 0, [1, 0, 1, 1]>, <103, 11, 23, 12, 5, 0, 0, [1, 0, 1, 1]>, <104, 12, 24, 12, 5, 0, 0, [1, 0, 1, 1]>, <105, 13, 25, 12, 5, 0, 0, [1, 0, 1, 1]>, <106, 14, 26, 12, 5, 0, 0, [1, 0, 1, 1]>, <107, 15, 27, 12, 5, 0, 0, [1, 0, 1, 1]>, <108, 16, 28, 12, 5, 0, 0, [1, 0, 1, 1]>, <109, 17, 29, 12, 5, 0, 0, [1, 0, 1, 1]>, <110, 0, 13, 13, 6, 0, 0, [1, 0, 1, 1]>, <111, 1, 14, 13, 6, 0, 0, [1, 0, 1, 1]>, <112, 2, 15, 13, 6, 0, 0, [1, 0, 1, 1]>, <113, 3, 16, 13, 6, 0, 0, [1, 0, 1, 1]>, <114, 4, 17, 13, 6, 0, 0, [1, 0, 1, 1]>, <115, 5, 18, 13, 6, 0, 0, [1, 0, 1, 1]>, <116, 7, 20, 13, 6, 0, 0, [1, 0, 1, 1]>, <117, 8, 21, 13, 6, 0, 0, [1, 0, 1, 1]>, <118, 9, 22, 13, 6, 0, 0, [1, 0, 1, 1]>, <119, 10, 23, 13, 6, 0, 0, [1, 0, 1, 1]>, <120, 11, 24, 13, 6, 0, 0, [1, 0, 1, 1]>, <121, 12, 25, 13, 6, 0, 0, [1, 0, 1, 1]>, <122, 13, 26, 13, 6, 0, 0, [1, 0, 1, 1]>, <123, 14, 27, 13, 6, 0, 0, [1, 0, 1, 1]>, <124, 15, 28, 13, 6, 0, 0, [1, 0, 1, 1]>, <125, 16, 29, 13, 6, 0, 0, [1, 0, 1, 1]>, <126, 0, 14, 14, 7, 1, 0, [1, 0, 1, 1]>, <127, 1, 15, 14, 7, 1, 0, [1, 0, 1, 1]>, <128, 2, 16, 14, 7, 1, 0, [1, 0, 1, 1]>, <129, 3, 17, 14, 7, 1, 0, [1, 0, 1, 1]>, <130, 4, 18, 14, 7, 1, 0, [1, 0, 1, 1]>, <131, 5, 19, 14, 7, 1, 0, [1, 0, 1, 1]>, <132, 6, 20, 14, 7, 1, 0, [1, 0, 1, 1]>, <133, 7, 21, 14, 7, 1, 0, [1, 0, 1, 1]>, <134, 8, 22, 14, 7, 1, 0, [1, 0, 1, 1]>, <135, 9, 23, 14, 7, 1, 0, [1, 0, 1, 1]>, <136, 10, 24, 14, 7, 1, 0, [1, 0, 1, 1]>, <137, 11, 25, 14, 7, 1, 0, [1, 0, 1, 1]>, <138, 12, 26, 14, 7, 1, 0, [1, 0, 1, 1]>, <139, 13, 27, 14, 7, 1, 0, [1, 0, 1, 1]>, <140, 14, 28, 14, 7, 1, 0, [1, 0, 1, 1]>, <141, 15, 29, 14, 7, 1, 0, [1, 0, 1, 1]>};
